problems/csplib-prob056/sonet-models/noch/O2/lingeling/model_3_1-s3ring02-solution000001.eprime-solution
language ESSENCE' 1.0

letting network_ExplicitWithFlagsR5_Flags be [2, 1, 1, 1, 1, 1, 0; int(1..7)]
letting network_ExplicitWithFlagsR5_Values_ExplicitVarSizeWithMarker_Marker be [0, 3, 4, 5, 5, 5, 0; int(1..7)]
letting network_ExplicitWithFlagsR5_Values_ExplicitVarSizeWithMarker_Values be
        [[1, 1, 1, 1, 1; int(1..5)], [1, 7, 10, 1, 1; int(1..5)], [4, 7, 8, 9, 1; int(1..5)],
         [1, 8, 11, 12, 13; int(1..5)], [2, 3, 7, 9, 12; int(1..5)], [3, 4, 5, 6, 10; int(1..5)],
         [1, 1, 1, 1, 1; int(1..5)]; int(1..7)]
